NAME : compression
TYPE : TSP
DIMENSION : 50
EDGE_WEIGHT_TYPE : EUC_2D
NODE_COORD_SECTION
1 431474 124576
2 197521 404386
3 478993 946765
4 836631 503860
5 403685 620145
6 277747 83307
7 142905 533907
8 450550 829475
9 811694 619447
10 367469 842080
11 193861 352212
12 636894 584426
13 129566 514146
14 622713 898923
15 950618 126133
16 136249 509611
17 187533 362597
18 975565 666097
19 564587 684799
20 117299 485346
21 445113 821408
22 770246 97792
23 896562 621842
24 759522 173508
25 137851 521228
26 643399 497459
27 149150 519098
28 782700 507177
29 613736 670785
30 898041 333110
31 8360 898972
32 883561 813536
33 108577 497842
34 150744 515317
35 96990 537884
36 627836 737727
37 127397 511297
38 935136 670628
39 783740 405327
40 394525 616163
41 799946 751554
42 268445 236189
43 960767 126137
44 636835 453589
45 156004 502842
46 797448 863665
47 198689 116898
48 302540 155333
49 128738 403143
50 929734 544539
EOF
